# Factor graph made by utils/createfg
# type = GRID
# states = 2
# n1 = 4
# n2 = 4
# options = [mean_th=0,mean_w=0,sigma_th=1,sigma_w=1]
# N = 16
# seed = 123
40

2
0 4 
2 2 
4
0    3.02912
1   0.330129
2   0.330129
3    3.02912

2
0 1 
2 2 
4
0    1.01944
1    0.98093
2    0.98093
3    1.01944

2
1 5 
2 2 
4
0    4.27314
1    0.23402
2    0.23402
3    4.27314

2
1 2 
2 2 
4
0   0.732324
1    1.36552
2    1.36552
3   0.732324

2
2 6 
2 2 
4
0    2.31161
1   0.432599
2   0.432599
3    2.31161

2
2 3 
2 2 
4
0    1.38123
1   0.723993
2   0.723993
3    1.38123

2
3 7 
2 2 
4
0    0.25634
1    3.90107
2    3.90107
3    0.25634

2
4 8 
2 2 
4
0    8.05109
1   0.124207
2   0.124207
3    8.05109

2
4 5 
2 2 
4
0   0.563912
1    1.77333
2    1.77333
3   0.563912

2
5 9 
2 2 
4
0    2.54815
1   0.392442
2   0.392442
3    2.54815

2
5 6 
2 2 
4
0    9.81938
1   0.101839
2   0.101839
3    9.81938

2
6 10 
2 2 
4
0    1.22986
1   0.813103
2   0.813103
3    1.22986

2
6 7 
2 2 
4
0   0.372456
1    2.68488
2    2.68488
3   0.372456

2
7 11 
2 2 
4
0   0.422103
1    2.36909
2    2.36909
3   0.422103

2
8 12 
2 2 
4
0    2.26878
1   0.440766
2   0.440766
3    2.26878

2
8 9 
2 2 
4
0   0.107424
1    9.30894
2    9.30894
3   0.107424

2
9 13 
2 2 
4
0    1.58546
1   0.630732
2   0.630732
3    1.58546

2
9 10 
2 2 
4
0   0.410225
1    2.43769
2    2.43769
3   0.410225

2
10 14 
2 2 
4
0   0.387175
1    2.58281
2    2.58281
3   0.387175

2
10 11 
2 2 
4
0    6.62126
1   0.151029
2   0.151029
3    6.62126

2
11 15 
2 2 
4
0   0.375367
1    2.66406
2    2.66406
3   0.375367

2
12 13 
2 2 
4
0    0.75938
1    1.31686
2    1.31686
3    0.75938

2
13 14 
2 2 
4
0   0.567725
1    1.76141
2    1.76141
3   0.567725

2
14 15 
2 2 
4
0   0.512268
1     1.9521
2     1.9521
3   0.512268

1
0 
2 
2
0   0.545904
1    1.83182

1
1 
2 
2
0    1.66368
1   0.601078

1
2 
2 
2
0    1.07792
1   0.927712

1
3 
2 
2
0   0.292063
1    3.42392

1
4 
2 
2
0    1.78654
1    0.55974

1
5 
2 
2
0    1.16921
1    0.85528

1
6 
2 
2
0   0.972681
1    1.02809

1
7 
2 
2
0   0.958452
1    1.04335

1
8 
2 
2
0   0.433738
1    2.30554

1
9 
2 
2
0    1.39047
1   0.719179

1
10 
2 
2
0    1.43407
1   0.697314

1
11 
2 
2
0    1.52814
1   0.654389

1
12 
2 
2
0   0.804229
1    1.24343

1
13 
2 
2
0    11.0545
1  0.0904606

1
14 
2 
2
0   0.447773
1    2.23327

1
15 
2 
2
0    2.45654
1   0.407076
