# Factor graph made by ../utils/createfg
# type = GRID
# states = 2
# n1 = 4
# n2 = 4
# options = [mean_th=0,mean_w=0,sigma_th=0.5,sigma_w=0.5]
# N = 16
# seed = 123
40

2
0 4 
2 2 
4
0    1.74044
1   0.574568
2   0.574568
3    1.74044

2
0 1 
2 2 
4
0    1.00967
1   0.990419
2   0.990419
3    1.00967

2
1 5 
2 2 
4
0    2.06716
1   0.483756
2   0.483756
3    2.06716

2
1 2 
2 2 
4
0   0.855759
1    1.16855
2    1.16855
3   0.855759

2
2 6 
2 2 
4
0     1.5204
1   0.657723
2   0.657723
3     1.5204

2
2 3 
2 2 
4
0    1.17526
1   0.850878
2   0.850878
3    1.17526

2
3 7 
2 2 
4
0     0.5063
1    1.97511
2    1.97511
3     0.5063

2
4 8 
2 2 
4
0    2.83744
1    0.35243
2    0.35243
3    2.83744

2
4 5 
2 2 
4
0   0.750941
1    1.33166
2    1.33166
3   0.750941

2
5 9 
2 2 
4
0    1.59629
1   0.626452
2   0.626452
3    1.59629

2
5 6 
2 2 
4
0    3.13359
1   0.319123
2   0.319123
3    3.13359

2
6 10 
2 2 
4
0    1.10899
1   0.901722
2   0.901722
3    1.10899

2
6 7 
2 2 
4
0   0.610292
1    1.63856
2    1.63856
3   0.610292

2
7 11 
2 2 
4
0   0.649694
1    1.53919
2    1.53919
3   0.649694

2
8 12 
2 2 
4
0    1.50625
1   0.663902
2   0.663902
3    1.50625

2
8 9 
2 2 
4
0   0.327755
1    3.05105
2    3.05105
3   0.327755

2
9 13 
2 2 
4
0    1.25915
1   0.794186
2   0.794186
3    1.25915

2
9 10 
2 2 
4
0   0.640488
1    1.56131
2    1.56131
3   0.640488

2
10 14 
2 2 
4
0   0.622234
1    1.60711
2    1.60711
3   0.622234

2
10 11 
2 2 
4
0    2.57318
1   0.388624
2   0.388624
3    2.57318

2
11 15 
2 2 
4
0   0.612672
1     1.6322
2     1.6322
3   0.612672

2
12 13 
2 2 
4
0   0.871424
1    1.14755
2    1.14755
3   0.871424

2
13 14 
2 2 
4
0   0.753476
1    1.32718
2    1.32718
3   0.753476

2
14 15 
2 2 
4
0   0.715729
1    1.39718
2    1.39718
3   0.715729

1
0 
2 
2
0   0.738853
1    1.35345

1
1 
2 
2
0    1.28984
1   0.775292

1
2 
2 
2
0    1.03823
1   0.963178

1
3 
2 
2
0   0.540428
1    1.85038

1
4 
2 
2
0    1.33662
1   0.748158

1
5 
2 
2
0     1.0813
1   0.924814

1
6 
2 
2
0   0.986246
1    1.01395

1
7 
2 
2
0   0.979006
1    1.02144

1
8 
2 
2
0   0.658588
1     1.5184

1
9 
2 
2
0    1.17918
1   0.848044

1
10 
2 
2
0    1.19753
1   0.835053

1
11 
2 
2
0    1.23618
1   0.808943

1
12 
2 
2
0   0.896788
1    1.11509

1
13 
2 
2
0    3.32484
1   0.300767

1
14 
2 
2
0   0.669159
1    1.49441

1
15 
2 
2
0    1.56734
1   0.638025
